NAME : rc_203.1.4884224.tour
COMMENT : Length = 4884224
COMMENT : Found by LKH [Keld Helsgaun] Tue Nov  7 19:55:43 2017
TYPE : TOUR
DIMENSION : 19
TOUR_SECTION
1
16
11
13
9
14
17
18
4
10
12
19
15
8
6
5
7
3
2
-1
EOF
